52
120
96	1
94	3
93	2
91	1
90	1
89	1
88	3
87	1
86	1
81	2
79	1
78	1
77	1
76	1
74	3
72	3
70	2
69	3
68	1
67	1
66	1
65	3
64	1
63	5
62	2
61	1
58	4
57	1
56	1
52	2
50	6
48	1
47	2
46	1
45	1
44	1
43	3
42	2
39	3
38	1
37	3
36	2
35	2
34	2
33	3
32	1
30	4
29	2
28	1
27	2
26	1
24	2
